webassembly/ejemplos_dzn/12/folder12_json_45.dzn
TERM = { '.', 's(2)', 'in_1', 'local_0', 'local_1', 'in_6', 'in_2', 'in_4', 'in_3', 's(1)', 's(0)', 'in_7', 'in_5', 'in_0'};
null = '.';
s = 12;
n = 13;
ndeps = 4;
max_registers_sz = 4;
NR = 1;
registers = [|'local_1', 's(1)'|];
dependencies = [|'i32.store16_1', 'i32.load8_u_2', |'i32.load8_u_2', 'i32.store16_3', |'i32.store16_3', 'i32.store8_7', |'i32.store8_7', 'i32.store16_10'|];
GET_ENUM = { GET1, GET2, GET3, GET4, GET5};
SET_ENUM = { SET1, SET2, SET3, SET4, SET5};
TEE_ENUM = { TEE1, TEE2, TEE3, TEE4, TEE5};
N = 8;
OP = { 'i32.const_0', 'i32.store16_1', 'i32.load8_u_2', 'i32.store16_3', 'i32.store8_7', 'i32.add_0', 'i32.store16_10', 'local.get_0' };
in_ops = [0, 2, 1, 2, 2, 2, 2, 0 ];
out_ops = [1, 0, 1, 0, 0, 1, 0, 1 ];
in1 = ['.', 'in_1', 'in_3', 's(0)', 'in_6', 'in_0', 's(1)', '.' ];
in2 = ['.', 'in_2', '.', 'in_4', 'in_7', 'in_5', 'local_0', '.' ];
in3 = ['.', '.', '.', '.', '.', '.', '.', '.' ];
out1 = ['s(2)', '.', 's(0)', '.', '.', 's(1)', '.', 'local_0' ];
out2 = ['.', '.', '.', '.', '.', '.', '.', '.' ];
out3 = ['.', '.', '.', '.', '.', '.', '.', '.' ];
comm = [false, false, false, false, false, true, false, false ];
gas = [1, 1, 1, 1, 1, 1, 1, 1 ];
sz = [1, 1, 1, 1, 1, 1, 1, 1 ];
stor = [false, true, false, true, true, false, true, false ];
lb = [ 1, 1, 1, 1, 1, 1, 1, 1 ];
ub = [ 12, 12, 12, 12, 12, 12, 12, 12 ];
startstack = [ 'in_0', 'in_1', 'in_2', 'in_3', 'in_4', 'in_5', 'in_6', 'in_7', null, null, null, null, null ];
endstack = [ 's(2)', null, null, null, null, null, null, null, null, null, null, null, null ];
