webassembly/ejemplos_results/12/folder12_json_45.txt
value = 12;
fgas = [2, 1, 1, 1, 2, 1, 1, 1, 1, 1, 2, 1];
fsize = [1, 1, 1, 1, 1, 1, 1, 1, 1, 1, 1, 1];
states = 
[|    in_0,    in_1, in_2, in_3, in_4, in_5, in_6, in_7, '.', '.', '.', '.', '.'
 |    in_1,    in_2, in_3, in_4, in_5, in_6, in_7,  '.', '.', '.', '.', '.', '.'
 |  's(1)',    in_0, in_5, in_6, in_7,  '.',  '.',  '.', '.', '.', '.', '.', '.'
 |    in_0,    in_5, in_6, in_7,  '.',  '.',  '.',  '.', '.', '.', '.', '.', '.'
 | local_0,    in_0, in_5, in_6, in_7,  '.',  '.',  '.', '.', '.', '.', '.', '.'
 |    in_0,    in_5, in_6, in_7,  '.',  '.',  '.',  '.', '.', '.', '.', '.', '.'
 |  's(1)', local_0, in_7,  '.',  '.',  '.',  '.',  '.', '.', '.', '.', '.', '.'
 |    in_6,    in_7,  '.',  '.',  '.',  '.',  '.',  '.', '.', '.', '.', '.', '.'
 |    in_3,    in_4,  '.',  '.',  '.',  '.',  '.',  '.', '.', '.', '.', '.', '.'
 |  's(0)',    in_4,  '.',  '.',  '.',  '.',  '.',  '.', '.', '.', '.', '.', '.'
 |  's(2)',  's(0)', in_4,  '.',  '.',  '.',  '.',  '.', '.', '.', '.', '.', '.'
 |  's(0)',    in_4,  '.',  '.',  '.',  '.',  '.',  '.', '.', '.', '.', '.', '.'
 |  's(2)',     '.',  '.',  '.',  '.',  '.',  '.',  '.', '.', '.', '.', '.', '.'
 |];
register_states = 
[| local_1, '.', '.', '.', '.'
 | local_1, '.', '.', '.', '.'
 | local_1, '.', '.', '.', '.'
 |  's(1)', '.', '.', '.', '.'
 |  's(1)', '.', '.', '.', '.'
 |  's(1)', '.', '.', '.', '.'
 |  's(1)', '.', '.', '.', '.'
 |  's(1)', '.', '.', '.', '.'
 |  's(1)', '.', '.', '.', '.'
 |  's(1)', '.', '.', '.', '.'
 |  's(1)', '.', '.', '.', '.'
 |  's(1)', '.', '.', '.', '.'
 |  's(1)', '.', '.', '.', '.'
 |];
program = [POP, O('i32.store16_1'), S(SET1), O('local.get_0'), POP, O('i32.add_0'), O('i32.store16_10'), O('i32.store8_7'), O('i32.load8_u_2'), O('i32.const_0'), POP, O('i32.store16_3')];
% time elapsed: 0.33 s
----------
value = 11;
fgas = [1, 1, 1, 1, 1, 1, 1, 1, 1, 1, 1, 0];
fsize = [1, 1, 1, 1, 1, 1, 1, 1, 1, 1, 1, 1];
states = 
[|    in_0,    in_1, in_2, in_3, in_4, in_5, in_6, in_7, '.', '.', '.', '.', '.'
 |    in_1,    in_2, in_3, in_4, in_5, in_6, in_7,  '.', '.', '.', '.', '.', '.'
 |    in_6,    in_7, in_5, in_6, in_7,  '.',  '.',  '.', '.', '.', '.', '.', '.'
 |    in_5,    in_0, in_7,  '.',  '.',  '.',  '.',  '.', '.', '.', '.', '.', '.'
 | local_0,    in_5, in_0, in_7,  '.',  '.',  '.',  '.', '.', '.', '.', '.', '.'
 |    in_5,    in_0, in_7,  '.',  '.',  '.',  '.',  '.', '.', '.', '.', '.', '.'
 |  's(1)', local_0,  '.',  '.',  '.',  '.',  '.',  '.', '.', '.', '.', '.', '.'
 |  's(1)', local_0,  '.',  '.',  '.',  '.',  '.',  '.', '.', '.', '.', '.', '.'
 |    in_3,    in_4,  '.',  '.',  '.',  '.',  '.',  '.', '.', '.', '.', '.', '.'
 |  's(0)',    in_4,  '.',  '.',  '.',  '.',  '.',  '.', '.', '.', '.', '.', '.'
 |     '.',     '.',  '.',  '.',  '.',  '.',  '.',  '.', '.', '.', '.', '.', '.'
 |  's(2)',     '.',  '.',  '.',  '.',  '.',  '.',  '.', '.', '.', '.', '.', '.'
 |  's(2)',     '.',  '.',  '.',  '.',  '.',  '.',  '.', '.', '.', '.', '.', '.'
 |];
register_states = 
[| local_1, '.', '.', '.', '.'
 |    in_0, '.', '.', '.', '.'
 |    in_0, '.', '.', '.', '.'
 |    in_0, '.', '.', '.', '.'
 |    in_0, '.', '.', '.', '.'
 | local_0, '.', '.', '.', '.'
 | local_0, '.', '.', '.', '.'
 |  's(1)', '.', '.', '.', '.'
 |  's(1)', '.', '.', '.', '.'
 |  's(1)', '.', '.', '.', '.'
 |  's(1)', '.', '.', '.', '.'
 |  's(1)', '.', '.', '.', '.'
 |  's(1)', '.', '.', '.', '.'
 |];
program = [S(SET1), O('i32.store16_1'), O('i32.store8_7'), O('local.get_0'), S(SET1), O('i32.add_0'), TEE(TEE1), O('i32.store16_10'), O('i32.load8_u_2'), O('i32.store16_3'), O('i32.const_0'), NOP];
% time elapsed: 0.33 s
----------
==========
% time elapsed: 0.48 s
% [value > 10]
